c A SAT instance generated from a 3-CNF formula that had 16 clauses and 8 variables
p cnf 8 16
4 7 -1 0
-7 -6 -5 0
-4 -1 3 0
6 -7 -5 0
3 -2 5 0
-5 2 8 0
-7 2 1 0
-2 -1 -6 0
-5 -4 1 0
6 8 -1 0
7 8 3 0
-7 4 -2 0
7 8 2 0
3 -6 -4 0
7 4 2 0
2 -3 -1 0
